Minimize
	latency

Subject To
	c1: start_g2 - start_a4 >= 1
	c2: start_i2 - start_g3 >= 1
	c3: start_i2 - start_a4 >= 1
	c4: start_a3 - start_a4 >= 1
	c5: start_a3 - start_e4 >= 1
	c6: start_j2 - start_g3 >= 1
	c7: start_g1 - start_g2 >= 1
	c8: start_g1 - start_h2 >= 1
	c9: start_g1 - start_i2 >= 1
	c10: start_g1 - start_a3 >= 1
	c11: start_g1 - start_j2 >= 1
	c12: start_k - start_g1 >= 1
	c13: start_f2 - start_e4 >= 1
	c14: start_h1 - start_g2 >= 1
	c15: start_h1 - start_f2 >= 1
	c16: start_h1 - start_j2 >= 1
	c17: start_h1 - start_i2 >= 1
	c18: start_l - start_h1 >= 1
	c19: start_m - start_f3 >= 1
	c20: start_c2 - start_e4 >= 1
	c21: start_a1 - start_d4 >= 1
	c22: start_a1 - start_c4 >= 1
	c23: start_a1 - start_b4 >= 1
	c24: start_a1 - start_a3 >= 1
	c25: start_a1 - start_i2 >= 1
	c26: start_a1 - start_g2 >= 1
	c27: start_a1 - start_f3 >= 1
	c28: start_a1 - start_c2 >= 1
	c29: start_n - start_a1 >= 1
	c30: start_i1 - start_j2 >= 1
	c31: start_i1 - start_f3 >= 1
	c32: start_i1 - start_i2 >= 1
	c33: start_i1 - start_g2 >= 1
	c34: start_o - start_i1 >= 1
	c35: start_c3 - start_d4 >= 1
	c36: start_c3 - start_c4 >= 1
	c37: start_c3 - start_e4 >= 1
	c38: start_a2 - start_c3 >= 1
	c39: start_a2 - start_a4 >= 1
	c40: start_f1 - start_g3 >= 1
	c41: start_f1 - start_a2 >= 1
	c42: start_b3 - start_d4 >= 1
	c43: start_b3 - start_c4 >= 1
	c44: start_h3 - start_a4 >= 1
	c45: start_h3 - start_f4 >= 1
	c46: start_d2 - start_b3 >= 1
	c47: start_d2 - start_h3 >= 1
	c48: start_d1 - start_d2 >= 1
	c49: start_c1 - start_e4 >= 1
	c50: start_p - start_f1 >= 1
	c51: start_p - start_e1 >= 1
	c52: start_p - start_d1 >= 1
	c53: start_p - start_c1 >= 1
	c54: start_b2 - start_f3 >= 1
	c55: start_b2 - start_a3 >= 1
	c56: start_b1 - start_b2 >= 1
	c57: start_d3 - start_a4 >= 1
	c58: start_e3 - start_d4 >= 1
	c59: start_e3 - start_c4 >= 1
	c60: start_e3 - start_b4 >= 1
	c61: start_e2 - start_d3 >= 1
	c62: start_e2 - start_e3 >= 1
	c63: start_j1 - start_e2 >= 1
	c64: start_q - start_b1 >= 1
	c65: start_q - start_c1 >= 1
	c66: start_q - start_j1 >= 1
	c67: latency - start_k >= 0
	c68: latency - start_l >= 0
	c69: latency - start_m >= 0
	c70: latency - start_n >= 0
	c71: latency - start_o >= 0
	c72: latency - start_p >= 0
	c73: latency - start_q >= 0

	r1: used_AND_t1 <= 1
	r2: used__OR_t1 <= 1
	r3: used_NOT_t1 <= 1
	r4: used_AND_t2 <= 1
	r5: used__OR_t2 <= 1
	r6: used_NOT_t2 <= 1
	r7: used_AND_t3 <= 1
	r8: used__OR_t3 <= 1
	r9: used_NOT_t3 <= 1
	r10: used_AND_t4 <= 1
	r11: used__OR_t4 <= 1
	r12: used_NOT_t4 <= 1
	r13: used_AND_t5 <= 1
	r14: used__OR_t5 <= 1
	r15: used_NOT_t5 <= 1
	r16: used_AND_t6 <= 1
	r17: used__OR_t6 <= 1
	r18: used_NOT_t6 <= 1
	r19: used_AND_t7 <= 1
	r20: used__OR_t7 <= 1
	r21: used_NOT_t7 <= 1
	r22: used_AND_t8 <= 1
	r23: used__OR_t8 <= 1
	r24: used_NOT_t8 <= 1
	r25: used_AND_t9 <= 1
	r26: used__OR_t9 <= 1
	r27: used_NOT_t9 <= 1
	r28: used_AND_t10 <= 1
	r29: used__OR_t10 <= 1
	r30: used_NOT_t10 <= 1
	r31: used_AND_t11 <= 1
	r32: used__OR_t11 <= 1
	r33: used_NOT_t11 <= 1
	r34: used_AND_t12 <= 1
	r35: used__OR_t12 <= 1
	r36: used_NOT_t12 <= 1
	r37: used_AND_t13 <= 1
	r38: used__OR_t13 <= 1
	r39: used_NOT_t13 <= 1
	r40: used_AND_t14 <= 1
	r41: used__OR_t14 <= 1
	r42: used_NOT_t14 <= 1
	r43: used_AND_t15 <= 1
	r44: used__OR_t15 <= 1
	r45: used_NOT_t15 <= 1
	r46: used_AND_t16 <= 1
	r47: used__OR_t16 <= 1
	r48: used_NOT_t16 <= 1
	r49: used_AND_t17 <= 1
	r50: used__OR_t17 <= 1
	r51: used_NOT_t17 <= 1
	r52: used_AND_t18 <= 1
	r53: used__OR_t18 <= 1
	r54: used_NOT_t18 <= 1

	r55: used_AND_t1 - x_g1_t1 - x_h1_t1 - x_a1_t1 - x_i1_t1 - x_c3_t1 - x_f1_t1 - x_b3_t1 - x_h3_t1 - x_d1_t1 - x_c1_t1 - x_b2_t1 - x_d3_t1 - x_e3_t1 - x_j1_t1 = 0
	r56: used__OR_t1 - x_g2_t1 - x_h2_t1 - x_i2_t1 - x_a3_t1 - x_j2_t1 - x_f2_t1 - x_f3_t1 - x_c2_t1 - x_a2_t1 - x_d2_t1 - x_p_t1 - x_e2_t1 - x_q_t1 = 0
	r57: used_NOT_t1 - x_a4_t1 - x_g3_t1 - x_e4_t1 - x_k_t1 - x_l_t1 - x_m_t1 - x_d4_t1 - x_c4_t1 - x_b4_t1 - x_n_t1 - x_o_t1 - x_e1_t1 - x_f4_t1 - x_b1_t1 = 0
	r58: used_AND_t2 - x_g1_t2 - x_h1_t2 - x_a1_t2 - x_i1_t2 - x_c3_t2 - x_f1_t2 - x_b3_t2 - x_h3_t2 - x_d1_t2 - x_c1_t2 - x_b2_t2 - x_d3_t2 - x_e3_t2 - x_j1_t2 = 0
	r59: used__OR_t2 - x_g2_t2 - x_h2_t2 - x_i2_t2 - x_a3_t2 - x_j2_t2 - x_f2_t2 - x_f3_t2 - x_c2_t2 - x_a2_t2 - x_d2_t2 - x_p_t2 - x_e2_t2 - x_q_t2 = 0
	r60: used_NOT_t2 - x_a4_t2 - x_g3_t2 - x_e4_t2 - x_k_t2 - x_l_t2 - x_m_t2 - x_d4_t2 - x_c4_t2 - x_b4_t2 - x_n_t2 - x_o_t2 - x_e1_t2 - x_f4_t2 - x_b1_t2 = 0
	r61: used_AND_t3 - x_g1_t3 - x_h1_t3 - x_a1_t3 - x_i1_t3 - x_c3_t3 - x_f1_t3 - x_b3_t3 - x_h3_t3 - x_d1_t3 - x_c1_t3 - x_b2_t3 - x_d3_t3 - x_e3_t3 - x_j1_t3 = 0
	r62: used__OR_t3 - x_g2_t3 - x_h2_t3 - x_i2_t3 - x_a3_t3 - x_j2_t3 - x_f2_t3 - x_f3_t3 - x_c2_t3 - x_a2_t3 - x_d2_t3 - x_p_t3 - x_e2_t3 - x_q_t3 = 0
	r63: used_NOT_t3 - x_a4_t3 - x_g3_t3 - x_e4_t3 - x_k_t3 - x_l_t3 - x_m_t3 - x_d4_t3 - x_c4_t3 - x_b4_t3 - x_n_t3 - x_o_t3 - x_e1_t3 - x_f4_t3 - x_b1_t3 = 0
	r64: used_AND_t4 - x_g1_t4 - x_h1_t4 - x_a1_t4 - x_i1_t4 - x_c3_t4 - x_f1_t4 - x_b3_t4 - x_h3_t4 - x_d1_t4 - x_c1_t4 - x_b2_t4 - x_d3_t4 - x_e3_t4 - x_j1_t4 = 0
	r65: used__OR_t4 - x_g2_t4 - x_h2_t4 - x_i2_t4 - x_a3_t4 - x_j2_t4 - x_f2_t4 - x_f3_t4 - x_c2_t4 - x_a2_t4 - x_d2_t4 - x_p_t4 - x_e2_t4 - x_q_t4 = 0
	r66: used_NOT_t4 - x_a4_t4 - x_g3_t4 - x_e4_t4 - x_k_t4 - x_l_t4 - x_m_t4 - x_d4_t4 - x_c4_t4 - x_b4_t4 - x_n_t4 - x_o_t4 - x_e1_t4 - x_f4_t4 - x_b1_t4 = 0
	r67: used_AND_t5 - x_g1_t5 - x_h1_t5 - x_a1_t5 - x_i1_t5 - x_c3_t5 - x_f1_t5 - x_b3_t5 - x_h3_t5 - x_d1_t5 - x_c1_t5 - x_b2_t5 - x_d3_t5 - x_e3_t5 - x_j1_t5 = 0
	r68: used__OR_t5 - x_g2_t5 - x_h2_t5 - x_i2_t5 - x_a3_t5 - x_j2_t5 - x_f2_t5 - x_f3_t5 - x_c2_t5 - x_a2_t5 - x_d2_t5 - x_p_t5 - x_e2_t5 - x_q_t5 = 0
	r69: used_NOT_t5 - x_a4_t5 - x_g3_t5 - x_e4_t5 - x_k_t5 - x_l_t5 - x_m_t5 - x_d4_t5 - x_c4_t5 - x_b4_t5 - x_n_t5 - x_o_t5 - x_e1_t5 - x_f4_t5 - x_b1_t5 = 0
	r70: used_AND_t6 - x_g1_t6 - x_h1_t6 - x_a1_t6 - x_i1_t6 - x_c3_t6 - x_f1_t6 - x_b3_t6 - x_h3_t6 - x_d1_t6 - x_c1_t6 - x_b2_t6 - x_d3_t6 - x_e3_t6 - x_j1_t6 = 0
	r71: used__OR_t6 - x_g2_t6 - x_h2_t6 - x_i2_t6 - x_a3_t6 - x_j2_t6 - x_f2_t6 - x_f3_t6 - x_c2_t6 - x_a2_t6 - x_d2_t6 - x_p_t6 - x_e2_t6 - x_q_t6 = 0
	r72: used_NOT_t6 - x_a4_t6 - x_g3_t6 - x_e4_t6 - x_k_t6 - x_l_t6 - x_m_t6 - x_d4_t6 - x_c4_t6 - x_b4_t6 - x_n_t6 - x_o_t6 - x_e1_t6 - x_f4_t6 - x_b1_t6 = 0
	r73: used_AND_t7 - x_g1_t7 - x_h1_t7 - x_a1_t7 - x_i1_t7 - x_c3_t7 - x_f1_t7 - x_b3_t7 - x_h3_t7 - x_d1_t7 - x_c1_t7 - x_b2_t7 - x_d3_t7 - x_e3_t7 - x_j1_t7 = 0
	r74: used__OR_t7 - x_g2_t7 - x_h2_t7 - x_i2_t7 - x_a3_t7 - x_j2_t7 - x_f2_t7 - x_f3_t7 - x_c2_t7 - x_a2_t7 - x_d2_t7 - x_p_t7 - x_e2_t7 - x_q_t7 = 0
	r75: used_NOT_t7 - x_a4_t7 - x_g3_t7 - x_e4_t7 - x_k_t7 - x_l_t7 - x_m_t7 - x_d4_t7 - x_c4_t7 - x_b4_t7 - x_n_t7 - x_o_t7 - x_e1_t7 - x_f4_t7 - x_b1_t7 = 0
	r76: used_AND_t8 - x_g1_t8 - x_h1_t8 - x_a1_t8 - x_i1_t8 - x_c3_t8 - x_f1_t8 - x_b3_t8 - x_h3_t8 - x_d1_t8 - x_c1_t8 - x_b2_t8 - x_d3_t8 - x_e3_t8 - x_j1_t8 = 0
	r77: used__OR_t8 - x_g2_t8 - x_h2_t8 - x_i2_t8 - x_a3_t8 - x_j2_t8 - x_f2_t8 - x_f3_t8 - x_c2_t8 - x_a2_t8 - x_d2_t8 - x_p_t8 - x_e2_t8 - x_q_t8 = 0
	r78: used_NOT_t8 - x_a4_t8 - x_g3_t8 - x_e4_t8 - x_k_t8 - x_l_t8 - x_m_t8 - x_d4_t8 - x_c4_t8 - x_b4_t8 - x_n_t8 - x_o_t8 - x_e1_t8 - x_f4_t8 - x_b1_t8 = 0
	r79: used_AND_t9 - x_g1_t9 - x_h1_t9 - x_a1_t9 - x_i1_t9 - x_c3_t9 - x_f1_t9 - x_b3_t9 - x_h3_t9 - x_d1_t9 - x_c1_t9 - x_b2_t9 - x_d3_t9 - x_e3_t9 - x_j1_t9 = 0
	r80: used__OR_t9 - x_g2_t9 - x_h2_t9 - x_i2_t9 - x_a3_t9 - x_j2_t9 - x_f2_t9 - x_f3_t9 - x_c2_t9 - x_a2_t9 - x_d2_t9 - x_p_t9 - x_e2_t9 - x_q_t9 = 0
	r81: used_NOT_t9 - x_a4_t9 - x_g3_t9 - x_e4_t9 - x_k_t9 - x_l_t9 - x_m_t9 - x_d4_t9 - x_c4_t9 - x_b4_t9 - x_n_t9 - x_o_t9 - x_e1_t9 - x_f4_t9 - x_b1_t9 = 0
	r82: used_AND_t10 - x_g1_t10 - x_h1_t10 - x_a1_t10 - x_i1_t10 - x_c3_t10 - x_f1_t10 - x_b3_t10 - x_h3_t10 - x_d1_t10 - x_c1_t10 - x_b2_t10 - x_d3_t10 - x_e3_t10 - x_j1_t10 = 0
	r83: used__OR_t10 - x_g2_t10 - x_h2_t10 - x_i2_t10 - x_a3_t10 - x_j2_t10 - x_f2_t10 - x_f3_t10 - x_c2_t10 - x_a2_t10 - x_d2_t10 - x_p_t10 - x_e2_t10 - x_q_t10 = 0
	r84: used_NOT_t10 - x_a4_t10 - x_g3_t10 - x_e4_t10 - x_k_t10 - x_l_t10 - x_m_t10 - x_d4_t10 - x_c4_t10 - x_b4_t10 - x_n_t10 - x_o_t10 - x_e1_t10 - x_f4_t10 - x_b1_t10 = 0
	r85: used_AND_t11 - x_g1_t11 - x_h1_t11 - x_a1_t11 - x_i1_t11 - x_c3_t11 - x_f1_t11 - x_b3_t11 - x_h3_t11 - x_d1_t11 - x_c1_t11 - x_b2_t11 - x_d3_t11 - x_e3_t11 - x_j1_t11 = 0
	r86: used__OR_t11 - x_g2_t11 - x_h2_t11 - x_i2_t11 - x_a3_t11 - x_j2_t11 - x_f2_t11 - x_f3_t11 - x_c2_t11 - x_a2_t11 - x_d2_t11 - x_p_t11 - x_e2_t11 - x_q_t11 = 0
	r87: used_NOT_t11 - x_a4_t11 - x_g3_t11 - x_e4_t11 - x_k_t11 - x_l_t11 - x_m_t11 - x_d4_t11 - x_c4_t11 - x_b4_t11 - x_n_t11 - x_o_t11 - x_e1_t11 - x_f4_t11 - x_b1_t11 = 0
	r88: used_AND_t12 - x_g1_t12 - x_h1_t12 - x_a1_t12 - x_i1_t12 - x_c3_t12 - x_f1_t12 - x_b3_t12 - x_h3_t12 - x_d1_t12 - x_c1_t12 - x_b2_t12 - x_d3_t12 - x_e3_t12 - x_j1_t12 = 0
	r89: used__OR_t12 - x_g2_t12 - x_h2_t12 - x_i2_t12 - x_a3_t12 - x_j2_t12 - x_f2_t12 - x_f3_t12 - x_c2_t12 - x_a2_t12 - x_d2_t12 - x_p_t12 - x_e2_t12 - x_q_t12 = 0
	r90: used_NOT_t12 - x_a4_t12 - x_g3_t12 - x_e4_t12 - x_k_t12 - x_l_t12 - x_m_t12 - x_d4_t12 - x_c4_t12 - x_b4_t12 - x_n_t12 - x_o_t12 - x_e1_t12 - x_f4_t12 - x_b1_t12 = 0
	r91: used_AND_t13 - x_g1_t13 - x_h1_t13 - x_a1_t13 - x_i1_t13 - x_c3_t13 - x_f1_t13 - x_b3_t13 - x_h3_t13 - x_d1_t13 - x_c1_t13 - x_b2_t13 - x_d3_t13 - x_e3_t13 - x_j1_t13 = 0
	r92: used__OR_t13 - x_g2_t13 - x_h2_t13 - x_i2_t13 - x_a3_t13 - x_j2_t13 - x_f2_t13 - x_f3_t13 - x_c2_t13 - x_a2_t13 - x_d2_t13 - x_p_t13 - x_e2_t13 - x_q_t13 = 0
	r93: used_NOT_t13 - x_a4_t13 - x_g3_t13 - x_e4_t13 - x_k_t13 - x_l_t13 - x_m_t13 - x_d4_t13 - x_c4_t13 - x_b4_t13 - x_n_t13 - x_o_t13 - x_e1_t13 - x_f4_t13 - x_b1_t13 = 0
	r94: used_AND_t14 - x_g1_t14 - x_h1_t14 - x_a1_t14 - x_i1_t14 - x_c3_t14 - x_f1_t14 - x_b3_t14 - x_h3_t14 - x_d1_t14 - x_c1_t14 - x_b2_t14 - x_d3_t14 - x_e3_t14 - x_j1_t14 = 0
	r95: used__OR_t14 - x_g2_t14 - x_h2_t14 - x_i2_t14 - x_a3_t14 - x_j2_t14 - x_f2_t14 - x_f3_t14 - x_c2_t14 - x_a2_t14 - x_d2_t14 - x_p_t14 - x_e2_t14 - x_q_t14 = 0
	r96: used_NOT_t14 - x_a4_t14 - x_g3_t14 - x_e4_t14 - x_k_t14 - x_l_t14 - x_m_t14 - x_d4_t14 - x_c4_t14 - x_b4_t14 - x_n_t14 - x_o_t14 - x_e1_t14 - x_f4_t14 - x_b1_t14 = 0
	r97: used_AND_t15 - x_g1_t15 - x_h1_t15 - x_a1_t15 - x_i1_t15 - x_c3_t15 - x_f1_t15 - x_b3_t15 - x_h3_t15 - x_d1_t15 - x_c1_t15 - x_b2_t15 - x_d3_t15 - x_e3_t15 - x_j1_t15 = 0
	r98: used__OR_t15 - x_g2_t15 - x_h2_t15 - x_i2_t15 - x_a3_t15 - x_j2_t15 - x_f2_t15 - x_f3_t15 - x_c2_t15 - x_a2_t15 - x_d2_t15 - x_p_t15 - x_e2_t15 - x_q_t15 = 0
	r99: used_NOT_t15 - x_a4_t15 - x_g3_t15 - x_e4_t15 - x_k_t15 - x_l_t15 - x_m_t15 - x_d4_t15 - x_c4_t15 - x_b4_t15 - x_n_t15 - x_o_t15 - x_e1_t15 - x_f4_t15 - x_b1_t15 = 0
	r100: used_AND_t16 - x_g1_t16 - x_h1_t16 - x_a1_t16 - x_i1_t16 - x_c3_t16 - x_f1_t16 - x_b3_t16 - x_h3_t16 - x_d1_t16 - x_c1_t16 - x_b2_t16 - x_d3_t16 - x_e3_t16 - x_j1_t16 = 0
	r101: used__OR_t16 - x_g2_t16 - x_h2_t16 - x_i2_t16 - x_a3_t16 - x_j2_t16 - x_f2_t16 - x_f3_t16 - x_c2_t16 - x_a2_t16 - x_d2_t16 - x_p_t16 - x_e2_t16 - x_q_t16 = 0
	r102: used_NOT_t16 - x_a4_t16 - x_g3_t16 - x_e4_t16 - x_k_t16 - x_l_t16 - x_m_t16 - x_d4_t16 - x_c4_t16 - x_b4_t16 - x_n_t16 - x_o_t16 - x_e1_t16 - x_f4_t16 - x_b1_t16 = 0
	r103: used_AND_t17 - x_g1_t17 - x_h1_t17 - x_a1_t17 - x_i1_t17 - x_c3_t17 - x_f1_t17 - x_b3_t17 - x_h3_t17 - x_d1_t17 - x_c1_t17 - x_b2_t17 - x_d3_t17 - x_e3_t17 - x_j1_t17 = 0
	r104: used__OR_t17 - x_g2_t17 - x_h2_t17 - x_i2_t17 - x_a3_t17 - x_j2_t17 - x_f2_t17 - x_f3_t17 - x_c2_t17 - x_a2_t17 - x_d2_t17 - x_p_t17 - x_e2_t17 - x_q_t17 = 0
	r105: used_NOT_t17 - x_a4_t17 - x_g3_t17 - x_e4_t17 - x_k_t17 - x_l_t17 - x_m_t17 - x_d4_t17 - x_c4_t17 - x_b4_t17 - x_n_t17 - x_o_t17 - x_e1_t17 - x_f4_t17 - x_b1_t17 = 0
	r106: used_AND_t18 - x_g1_t18 - x_h1_t18 - x_a1_t18 - x_i1_t18 - x_c3_t18 - x_f1_t18 - x_b3_t18 - x_h3_t18 - x_d1_t18 - x_c1_t18 - x_b2_t18 - x_d3_t18 - x_e3_t18 - x_j1_t18 = 0
	r107: used__OR_t18 - x_g2_t18 - x_h2_t18 - x_i2_t18 - x_a3_t18 - x_j2_t18 - x_f2_t18 - x_f3_t18 - x_c2_t18 - x_a2_t18 - x_d2_t18 - x_p_t18 - x_e2_t18 - x_q_t18 = 0
	r108: used_NOT_t18 - x_a4_t18 - x_g3_t18 - x_e4_t18 - x_k_t18 - x_l_t18 - x_m_t18 - x_d4_t18 - x_c4_t18 - x_b4_t18 - x_n_t18 - x_o_t18 - x_e1_t18 - x_f4_t18 - x_b1_t18 = 0

	start_a4 - 1 x_a4_t1  - 2 x_a4_t2  - 3 x_a4_t3  - 4 x_a4_t4  - 5 x_a4_t5  - 6 x_a4_t6  - 7 x_a4_t7  - 8 x_a4_t8  - 9 x_a4_t9  - 10 x_a4_t10  - 11 x_a4_t11  - 12 x_a4_t12  - 13 x_a4_t13  - 14 x_a4_t14  - 15 x_a4_t15  - 16 x_a4_t16  - 17 x_a4_t17  - 18 x_a4_t18 = 0
	start_g2 - 1 x_g2_t1  - 2 x_g2_t2  - 3 x_g2_t3  - 4 x_g2_t4  - 5 x_g2_t5  - 6 x_g2_t6  - 7 x_g2_t7  - 8 x_g2_t8  - 9 x_g2_t9  - 10 x_g2_t10  - 11 x_g2_t11  - 12 x_g2_t12  - 13 x_g2_t13  - 14 x_g2_t14  - 15 x_g2_t15  - 16 x_g2_t16  - 17 x_g2_t17  - 18 x_g2_t18 = 0
	start_h2 - 1 x_h2_t1  - 2 x_h2_t2  - 3 x_h2_t3  - 4 x_h2_t4  - 5 x_h2_t5  - 6 x_h2_t6  - 7 x_h2_t7  - 8 x_h2_t8  - 9 x_h2_t9  - 10 x_h2_t10  - 11 x_h2_t11  - 12 x_h2_t12  - 13 x_h2_t13  - 14 x_h2_t14  - 15 x_h2_t15  - 16 x_h2_t16  - 17 x_h2_t17  - 18 x_h2_t18 = 0
	start_g3 - 1 x_g3_t1  - 2 x_g3_t2  - 3 x_g3_t3  - 4 x_g3_t4  - 5 x_g3_t5  - 6 x_g3_t6  - 7 x_g3_t7  - 8 x_g3_t8  - 9 x_g3_t9  - 10 x_g3_t10  - 11 x_g3_t11  - 12 x_g3_t12  - 13 x_g3_t13  - 14 x_g3_t14  - 15 x_g3_t15  - 16 x_g3_t16  - 17 x_g3_t17  - 18 x_g3_t18 = 0
	start_i2 - 1 x_i2_t1  - 2 x_i2_t2  - 3 x_i2_t3  - 4 x_i2_t4  - 5 x_i2_t5  - 6 x_i2_t6  - 7 x_i2_t7  - 8 x_i2_t8  - 9 x_i2_t9  - 10 x_i2_t10  - 11 x_i2_t11  - 12 x_i2_t12  - 13 x_i2_t13  - 14 x_i2_t14  - 15 x_i2_t15  - 16 x_i2_t16  - 17 x_i2_t17  - 18 x_i2_t18 = 0
	start_e4 - 1 x_e4_t1  - 2 x_e4_t2  - 3 x_e4_t3  - 4 x_e4_t4  - 5 x_e4_t5  - 6 x_e4_t6  - 7 x_e4_t7  - 8 x_e4_t8  - 9 x_e4_t9  - 10 x_e4_t10  - 11 x_e4_t11  - 12 x_e4_t12  - 13 x_e4_t13  - 14 x_e4_t14  - 15 x_e4_t15  - 16 x_e4_t16  - 17 x_e4_t17  - 18 x_e4_t18 = 0
	start_a3 - 1 x_a3_t1  - 2 x_a3_t2  - 3 x_a3_t3  - 4 x_a3_t4  - 5 x_a3_t5  - 6 x_a3_t6  - 7 x_a3_t7  - 8 x_a3_t8  - 9 x_a3_t9  - 10 x_a3_t10  - 11 x_a3_t11  - 12 x_a3_t12  - 13 x_a3_t13  - 14 x_a3_t14  - 15 x_a3_t15  - 16 x_a3_t16  - 17 x_a3_t17  - 18 x_a3_t18 = 0
	start_j2 - 1 x_j2_t1  - 2 x_j2_t2  - 3 x_j2_t3  - 4 x_j2_t4  - 5 x_j2_t5  - 6 x_j2_t6  - 7 x_j2_t7  - 8 x_j2_t8  - 9 x_j2_t9  - 10 x_j2_t10  - 11 x_j2_t11  - 12 x_j2_t12  - 13 x_j2_t13  - 14 x_j2_t14  - 15 x_j2_t15  - 16 x_j2_t16  - 17 x_j2_t17  - 18 x_j2_t18 = 0
	start_g1 - 1 x_g1_t1  - 2 x_g1_t2  - 3 x_g1_t3  - 4 x_g1_t4  - 5 x_g1_t5  - 6 x_g1_t6  - 7 x_g1_t7  - 8 x_g1_t8  - 9 x_g1_t9  - 10 x_g1_t10  - 11 x_g1_t11  - 12 x_g1_t12  - 13 x_g1_t13  - 14 x_g1_t14  - 15 x_g1_t15  - 16 x_g1_t16  - 17 x_g1_t17  - 18 x_g1_t18 = 0
	start_k - 1 x_k_t1  - 2 x_k_t2  - 3 x_k_t3  - 4 x_k_t4  - 5 x_k_t5  - 6 x_k_t6  - 7 x_k_t7  - 8 x_k_t8  - 9 x_k_t9  - 10 x_k_t10  - 11 x_k_t11  - 12 x_k_t12  - 13 x_k_t13  - 14 x_k_t14  - 15 x_k_t15  - 16 x_k_t16  - 17 x_k_t17  - 18 x_k_t18 = 0
	start_f2 - 1 x_f2_t1  - 2 x_f2_t2  - 3 x_f2_t3  - 4 x_f2_t4  - 5 x_f2_t5  - 6 x_f2_t6  - 7 x_f2_t7  - 8 x_f2_t8  - 9 x_f2_t9  - 10 x_f2_t10  - 11 x_f2_t11  - 12 x_f2_t12  - 13 x_f2_t13  - 14 x_f2_t14  - 15 x_f2_t15  - 16 x_f2_t16  - 17 x_f2_t17  - 18 x_f2_t18 = 0
	start_h1 - 1 x_h1_t1  - 2 x_h1_t2  - 3 x_h1_t3  - 4 x_h1_t4  - 5 x_h1_t5  - 6 x_h1_t6  - 7 x_h1_t7  - 8 x_h1_t8  - 9 x_h1_t9  - 10 x_h1_t10  - 11 x_h1_t11  - 12 x_h1_t12  - 13 x_h1_t13  - 14 x_h1_t14  - 15 x_h1_t15  - 16 x_h1_t16  - 17 x_h1_t17  - 18 x_h1_t18 = 0
	start_l - 1 x_l_t1  - 2 x_l_t2  - 3 x_l_t3  - 4 x_l_t4  - 5 x_l_t5  - 6 x_l_t6  - 7 x_l_t7  - 8 x_l_t8  - 9 x_l_t9  - 10 x_l_t10  - 11 x_l_t11  - 12 x_l_t12  - 13 x_l_t13  - 14 x_l_t14  - 15 x_l_t15  - 16 x_l_t16  - 17 x_l_t17  - 18 x_l_t18 = 0
	start_f3 - 1 x_f3_t1  - 2 x_f3_t2  - 3 x_f3_t3  - 4 x_f3_t4  - 5 x_f3_t5  - 6 x_f3_t6  - 7 x_f3_t7  - 8 x_f3_t8  - 9 x_f3_t9  - 10 x_f3_t10  - 11 x_f3_t11  - 12 x_f3_t12  - 13 x_f3_t13  - 14 x_f3_t14  - 15 x_f3_t15  - 16 x_f3_t16  - 17 x_f3_t17  - 18 x_f3_t18 = 0
	start_m - 1 x_m_t1  - 2 x_m_t2  - 3 x_m_t3  - 4 x_m_t4  - 5 x_m_t5  - 6 x_m_t6  - 7 x_m_t7  - 8 x_m_t8  - 9 x_m_t9  - 10 x_m_t10  - 11 x_m_t11  - 12 x_m_t12  - 13 x_m_t13  - 14 x_m_t14  - 15 x_m_t15  - 16 x_m_t16  - 17 x_m_t17  - 18 x_m_t18 = 0
	start_d4 - 1 x_d4_t1  - 2 x_d4_t2  - 3 x_d4_t3  - 4 x_d4_t4  - 5 x_d4_t5  - 6 x_d4_t6  - 7 x_d4_t7  - 8 x_d4_t8  - 9 x_d4_t9  - 10 x_d4_t10  - 11 x_d4_t11  - 12 x_d4_t12  - 13 x_d4_t13  - 14 x_d4_t14  - 15 x_d4_t15  - 16 x_d4_t16  - 17 x_d4_t17  - 18 x_d4_t18 = 0
	start_c4 - 1 x_c4_t1  - 2 x_c4_t2  - 3 x_c4_t3  - 4 x_c4_t4  - 5 x_c4_t5  - 6 x_c4_t6  - 7 x_c4_t7  - 8 x_c4_t8  - 9 x_c4_t9  - 10 x_c4_t10  - 11 x_c4_t11  - 12 x_c4_t12  - 13 x_c4_t13  - 14 x_c4_t14  - 15 x_c4_t15  - 16 x_c4_t16  - 17 x_c4_t17  - 18 x_c4_t18 = 0
	start_b4 - 1 x_b4_t1  - 2 x_b4_t2  - 3 x_b4_t3  - 4 x_b4_t4  - 5 x_b4_t5  - 6 x_b4_t6  - 7 x_b4_t7  - 8 x_b4_t8  - 9 x_b4_t9  - 10 x_b4_t10  - 11 x_b4_t11  - 12 x_b4_t12  - 13 x_b4_t13  - 14 x_b4_t14  - 15 x_b4_t15  - 16 x_b4_t16  - 17 x_b4_t17  - 18 x_b4_t18 = 0
	start_c2 - 1 x_c2_t1  - 2 x_c2_t2  - 3 x_c2_t3  - 4 x_c2_t4  - 5 x_c2_t5  - 6 x_c2_t6  - 7 x_c2_t7  - 8 x_c2_t8  - 9 x_c2_t9  - 10 x_c2_t10  - 11 x_c2_t11  - 12 x_c2_t12  - 13 x_c2_t13  - 14 x_c2_t14  - 15 x_c2_t15  - 16 x_c2_t16  - 17 x_c2_t17  - 18 x_c2_t18 = 0
	start_a1 - 1 x_a1_t1  - 2 x_a1_t2  - 3 x_a1_t3  - 4 x_a1_t4  - 5 x_a1_t5  - 6 x_a1_t6  - 7 x_a1_t7  - 8 x_a1_t8  - 9 x_a1_t9  - 10 x_a1_t10  - 11 x_a1_t11  - 12 x_a1_t12  - 13 x_a1_t13  - 14 x_a1_t14  - 15 x_a1_t15  - 16 x_a1_t16  - 17 x_a1_t17  - 18 x_a1_t18 = 0
	start_n - 1 x_n_t1  - 2 x_n_t2  - 3 x_n_t3  - 4 x_n_t4  - 5 x_n_t5  - 6 x_n_t6  - 7 x_n_t7  - 8 x_n_t8  - 9 x_n_t9  - 10 x_n_t10  - 11 x_n_t11  - 12 x_n_t12  - 13 x_n_t13  - 14 x_n_t14  - 15 x_n_t15  - 16 x_n_t16  - 17 x_n_t17  - 18 x_n_t18 = 0
	start_i1 - 1 x_i1_t1  - 2 x_i1_t2  - 3 x_i1_t3  - 4 x_i1_t4  - 5 x_i1_t5  - 6 x_i1_t6  - 7 x_i1_t7  - 8 x_i1_t8  - 9 x_i1_t9  - 10 x_i1_t10  - 11 x_i1_t11  - 12 x_i1_t12  - 13 x_i1_t13  - 14 x_i1_t14  - 15 x_i1_t15  - 16 x_i1_t16  - 17 x_i1_t17  - 18 x_i1_t18 = 0
	start_o - 1 x_o_t1  - 2 x_o_t2  - 3 x_o_t3  - 4 x_o_t4  - 5 x_o_t5  - 6 x_o_t6  - 7 x_o_t7  - 8 x_o_t8  - 9 x_o_t9  - 10 x_o_t10  - 11 x_o_t11  - 12 x_o_t12  - 13 x_o_t13  - 14 x_o_t14  - 15 x_o_t15  - 16 x_o_t16  - 17 x_o_t17  - 18 x_o_t18 = 0
	start_c3 - 1 x_c3_t1  - 2 x_c3_t2  - 3 x_c3_t3  - 4 x_c3_t4  - 5 x_c3_t5  - 6 x_c3_t6  - 7 x_c3_t7  - 8 x_c3_t8  - 9 x_c3_t9  - 10 x_c3_t10  - 11 x_c3_t11  - 12 x_c3_t12  - 13 x_c3_t13  - 14 x_c3_t14  - 15 x_c3_t15  - 16 x_c3_t16  - 17 x_c3_t17  - 18 x_c3_t18 = 0
	start_a2 - 1 x_a2_t1  - 2 x_a2_t2  - 3 x_a2_t3  - 4 x_a2_t4  - 5 x_a2_t5  - 6 x_a2_t6  - 7 x_a2_t7  - 8 x_a2_t8  - 9 x_a2_t9  - 10 x_a2_t10  - 11 x_a2_t11  - 12 x_a2_t12  - 13 x_a2_t13  - 14 x_a2_t14  - 15 x_a2_t15  - 16 x_a2_t16  - 17 x_a2_t17  - 18 x_a2_t18 = 0
	start_f1 - 1 x_f1_t1  - 2 x_f1_t2  - 3 x_f1_t3  - 4 x_f1_t4  - 5 x_f1_t5  - 6 x_f1_t6  - 7 x_f1_t7  - 8 x_f1_t8  - 9 x_f1_t9  - 10 x_f1_t10  - 11 x_f1_t11  - 12 x_f1_t12  - 13 x_f1_t13  - 14 x_f1_t14  - 15 x_f1_t15  - 16 x_f1_t16  - 17 x_f1_t17  - 18 x_f1_t18 = 0
	start_e1 - 1 x_e1_t1  - 2 x_e1_t2  - 3 x_e1_t3  - 4 x_e1_t4  - 5 x_e1_t5  - 6 x_e1_t6  - 7 x_e1_t7  - 8 x_e1_t8  - 9 x_e1_t9  - 10 x_e1_t10  - 11 x_e1_t11  - 12 x_e1_t12  - 13 x_e1_t13  - 14 x_e1_t14  - 15 x_e1_t15  - 16 x_e1_t16  - 17 x_e1_t17  - 18 x_e1_t18 = 0
	start_b3 - 1 x_b3_t1  - 2 x_b3_t2  - 3 x_b3_t3  - 4 x_b3_t4  - 5 x_b3_t5  - 6 x_b3_t6  - 7 x_b3_t7  - 8 x_b3_t8  - 9 x_b3_t9  - 10 x_b3_t10  - 11 x_b3_t11  - 12 x_b3_t12  - 13 x_b3_t13  - 14 x_b3_t14  - 15 x_b3_t15  - 16 x_b3_t16  - 17 x_b3_t17  - 18 x_b3_t18 = 0
	start_f4 - 1 x_f4_t1  - 2 x_f4_t2  - 3 x_f4_t3  - 4 x_f4_t4  - 5 x_f4_t5  - 6 x_f4_t6  - 7 x_f4_t7  - 8 x_f4_t8  - 9 x_f4_t9  - 10 x_f4_t10  - 11 x_f4_t11  - 12 x_f4_t12  - 13 x_f4_t13  - 14 x_f4_t14  - 15 x_f4_t15  - 16 x_f4_t16  - 17 x_f4_t17  - 18 x_f4_t18 = 0
	start_h3 - 1 x_h3_t1  - 2 x_h3_t2  - 3 x_h3_t3  - 4 x_h3_t4  - 5 x_h3_t5  - 6 x_h3_t6  - 7 x_h3_t7  - 8 x_h3_t8  - 9 x_h3_t9  - 10 x_h3_t10  - 11 x_h3_t11  - 12 x_h3_t12  - 13 x_h3_t13  - 14 x_h3_t14  - 15 x_h3_t15  - 16 x_h3_t16  - 17 x_h3_t17  - 18 x_h3_t18 = 0
	start_d2 - 1 x_d2_t1  - 2 x_d2_t2  - 3 x_d2_t3  - 4 x_d2_t4  - 5 x_d2_t5  - 6 x_d2_t6  - 7 x_d2_t7  - 8 x_d2_t8  - 9 x_d2_t9  - 10 x_d2_t10  - 11 x_d2_t11  - 12 x_d2_t12  - 13 x_d2_t13  - 14 x_d2_t14  - 15 x_d2_t15  - 16 x_d2_t16  - 17 x_d2_t17  - 18 x_d2_t18 = 0
	start_d1 - 1 x_d1_t1  - 2 x_d1_t2  - 3 x_d1_t3  - 4 x_d1_t4  - 5 x_d1_t5  - 6 x_d1_t6  - 7 x_d1_t7  - 8 x_d1_t8  - 9 x_d1_t9  - 10 x_d1_t10  - 11 x_d1_t11  - 12 x_d1_t12  - 13 x_d1_t13  - 14 x_d1_t14  - 15 x_d1_t15  - 16 x_d1_t16  - 17 x_d1_t17  - 18 x_d1_t18 = 0
	start_c1 - 1 x_c1_t1  - 2 x_c1_t2  - 3 x_c1_t3  - 4 x_c1_t4  - 5 x_c1_t5  - 6 x_c1_t6  - 7 x_c1_t7  - 8 x_c1_t8  - 9 x_c1_t9  - 10 x_c1_t10  - 11 x_c1_t11  - 12 x_c1_t12  - 13 x_c1_t13  - 14 x_c1_t14  - 15 x_c1_t15  - 16 x_c1_t16  - 17 x_c1_t17  - 18 x_c1_t18 = 0
	start_p - 1 x_p_t1  - 2 x_p_t2  - 3 x_p_t3  - 4 x_p_t4  - 5 x_p_t5  - 6 x_p_t6  - 7 x_p_t7  - 8 x_p_t8  - 9 x_p_t9  - 10 x_p_t10  - 11 x_p_t11  - 12 x_p_t12  - 13 x_p_t13  - 14 x_p_t14  - 15 x_p_t15  - 16 x_p_t16  - 17 x_p_t17  - 18 x_p_t18 = 0
	start_b2 - 1 x_b2_t1  - 2 x_b2_t2  - 3 x_b2_t3  - 4 x_b2_t4  - 5 x_b2_t5  - 6 x_b2_t6  - 7 x_b2_t7  - 8 x_b2_t8  - 9 x_b2_t9  - 10 x_b2_t10  - 11 x_b2_t11  - 12 x_b2_t12  - 13 x_b2_t13  - 14 x_b2_t14  - 15 x_b2_t15  - 16 x_b2_t16  - 17 x_b2_t17  - 18 x_b2_t18 = 0
	start_b1 - 1 x_b1_t1  - 2 x_b1_t2  - 3 x_b1_t3  - 4 x_b1_t4  - 5 x_b1_t5  - 6 x_b1_t6  - 7 x_b1_t7  - 8 x_b1_t8  - 9 x_b1_t9  - 10 x_b1_t10  - 11 x_b1_t11  - 12 x_b1_t12  - 13 x_b1_t13  - 14 x_b1_t14  - 15 x_b1_t15  - 16 x_b1_t16  - 17 x_b1_t17  - 18 x_b1_t18 = 0
	start_d3 - 1 x_d3_t1  - 2 x_d3_t2  - 3 x_d3_t3  - 4 x_d3_t4  - 5 x_d3_t5  - 6 x_d3_t6  - 7 x_d3_t7  - 8 x_d3_t8  - 9 x_d3_t9  - 10 x_d3_t10  - 11 x_d3_t11  - 12 x_d3_t12  - 13 x_d3_t13  - 14 x_d3_t14  - 15 x_d3_t15  - 16 x_d3_t16  - 17 x_d3_t17  - 18 x_d3_t18 = 0
	start_e3 - 1 x_e3_t1  - 2 x_e3_t2  - 3 x_e3_t3  - 4 x_e3_t4  - 5 x_e3_t5  - 6 x_e3_t6  - 7 x_e3_t7  - 8 x_e3_t8  - 9 x_e3_t9  - 10 x_e3_t10  - 11 x_e3_t11  - 12 x_e3_t12  - 13 x_e3_t13  - 14 x_e3_t14  - 15 x_e3_t15  - 16 x_e3_t16  - 17 x_e3_t17  - 18 x_e3_t18 = 0
	start_e2 - 1 x_e2_t1  - 2 x_e2_t2  - 3 x_e2_t3  - 4 x_e2_t4  - 5 x_e2_t5  - 6 x_e2_t6  - 7 x_e2_t7  - 8 x_e2_t8  - 9 x_e2_t9  - 10 x_e2_t10  - 11 x_e2_t11  - 12 x_e2_t12  - 13 x_e2_t13  - 14 x_e2_t14  - 15 x_e2_t15  - 16 x_e2_t16  - 17 x_e2_t17  - 18 x_e2_t18 = 0
	start_j1 - 1 x_j1_t1  - 2 x_j1_t2  - 3 x_j1_t3  - 4 x_j1_t4  - 5 x_j1_t5  - 6 x_j1_t6  - 7 x_j1_t7  - 8 x_j1_t8  - 9 x_j1_t9  - 10 x_j1_t10  - 11 x_j1_t11  - 12 x_j1_t12  - 13 x_j1_t13  - 14 x_j1_t14  - 15 x_j1_t15  - 16 x_j1_t16  - 17 x_j1_t17  - 18 x_j1_t18 = 0
	start_q - 1 x_q_t1  - 2 x_q_t2  - 3 x_q_t3  - 4 x_q_t4  - 5 x_q_t5  - 6 x_q_t6  - 7 x_q_t7  - 8 x_q_t8  - 9 x_q_t9  - 10 x_q_t10  - 11 x_q_t11  - 12 x_q_t12  - 13 x_q_t13  - 14 x_q_t14  - 15 x_q_t15  - 16 x_q_t16  - 17 x_q_t17  - 18 x_q_t18 = 0

	x_a4_t1 + x_a4_t2 + x_a4_t3 + x_a4_t4 + x_a4_t5 + x_a4_t6 + x_a4_t7 + x_a4_t8 + x_a4_t9 + x_a4_t10 + x_a4_t11 + x_a4_t12 + x_a4_t13 + x_a4_t14 + x_a4_t15 + x_a4_t16 + x_a4_t17 + x_a4_t18 = 1
	x_g2_t1 + x_g2_t2 + x_g2_t3 + x_g2_t4 + x_g2_t5 + x_g2_t6 + x_g2_t7 + x_g2_t8 + x_g2_t9 + x_g2_t10 + x_g2_t11 + x_g2_t12 + x_g2_t13 + x_g2_t14 + x_g2_t15 + x_g2_t16 + x_g2_t17 + x_g2_t18 = 1
	x_h2_t1 + x_h2_t2 + x_h2_t3 + x_h2_t4 + x_h2_t5 + x_h2_t6 + x_h2_t7 + x_h2_t8 + x_h2_t9 + x_h2_t10 + x_h2_t11 + x_h2_t12 + x_h2_t13 + x_h2_t14 + x_h2_t15 + x_h2_t16 + x_h2_t17 + x_h2_t18 = 1
	x_g3_t1 + x_g3_t2 + x_g3_t3 + x_g3_t4 + x_g3_t5 + x_g3_t6 + x_g3_t7 + x_g3_t8 + x_g3_t9 + x_g3_t10 + x_g3_t11 + x_g3_t12 + x_g3_t13 + x_g3_t14 + x_g3_t15 + x_g3_t16 + x_g3_t17 + x_g3_t18 = 1
	x_i2_t1 + x_i2_t2 + x_i2_t3 + x_i2_t4 + x_i2_t5 + x_i2_t6 + x_i2_t7 + x_i2_t8 + x_i2_t9 + x_i2_t10 + x_i2_t11 + x_i2_t12 + x_i2_t13 + x_i2_t14 + x_i2_t15 + x_i2_t16 + x_i2_t17 + x_i2_t18 = 1
	x_e4_t1 + x_e4_t2 + x_e4_t3 + x_e4_t4 + x_e4_t5 + x_e4_t6 + x_e4_t7 + x_e4_t8 + x_e4_t9 + x_e4_t10 + x_e4_t11 + x_e4_t12 + x_e4_t13 + x_e4_t14 + x_e4_t15 + x_e4_t16 + x_e4_t17 + x_e4_t18 = 1
	x_a3_t1 + x_a3_t2 + x_a3_t3 + x_a3_t4 + x_a3_t5 + x_a3_t6 + x_a3_t7 + x_a3_t8 + x_a3_t9 + x_a3_t10 + x_a3_t11 + x_a3_t12 + x_a3_t13 + x_a3_t14 + x_a3_t15 + x_a3_t16 + x_a3_t17 + x_a3_t18 = 1
	x_j2_t1 + x_j2_t2 + x_j2_t3 + x_j2_t4 + x_j2_t5 + x_j2_t6 + x_j2_t7 + x_j2_t8 + x_j2_t9 + x_j2_t10 + x_j2_t11 + x_j2_t12 + x_j2_t13 + x_j2_t14 + x_j2_t15 + x_j2_t16 + x_j2_t17 + x_j2_t18 = 1
	x_g1_t1 + x_g1_t2 + x_g1_t3 + x_g1_t4 + x_g1_t5 + x_g1_t6 + x_g1_t7 + x_g1_t8 + x_g1_t9 + x_g1_t10 + x_g1_t11 + x_g1_t12 + x_g1_t13 + x_g1_t14 + x_g1_t15 + x_g1_t16 + x_g1_t17 + x_g1_t18 = 1
	x_k_t1 + x_k_t2 + x_k_t3 + x_k_t4 + x_k_t5 + x_k_t6 + x_k_t7 + x_k_t8 + x_k_t9 + x_k_t10 + x_k_t11 + x_k_t12 + x_k_t13 + x_k_t14 + x_k_t15 + x_k_t16 + x_k_t17 + x_k_t18 = 1
	x_f2_t1 + x_f2_t2 + x_f2_t3 + x_f2_t4 + x_f2_t5 + x_f2_t6 + x_f2_t7 + x_f2_t8 + x_f2_t9 + x_f2_t10 + x_f2_t11 + x_f2_t12 + x_f2_t13 + x_f2_t14 + x_f2_t15 + x_f2_t16 + x_f2_t17 + x_f2_t18 = 1
	x_h1_t1 + x_h1_t2 + x_h1_t3 + x_h1_t4 + x_h1_t5 + x_h1_t6 + x_h1_t7 + x_h1_t8 + x_h1_t9 + x_h1_t10 + x_h1_t11 + x_h1_t12 + x_h1_t13 + x_h1_t14 + x_h1_t15 + x_h1_t16 + x_h1_t17 + x_h1_t18 = 1
	x_l_t1 + x_l_t2 + x_l_t3 + x_l_t4 + x_l_t5 + x_l_t6 + x_l_t7 + x_l_t8 + x_l_t9 + x_l_t10 + x_l_t11 + x_l_t12 + x_l_t13 + x_l_t14 + x_l_t15 + x_l_t16 + x_l_t17 + x_l_t18 = 1
	x_f3_t1 + x_f3_t2 + x_f3_t3 + x_f3_t4 + x_f3_t5 + x_f3_t6 + x_f3_t7 + x_f3_t8 + x_f3_t9 + x_f3_t10 + x_f3_t11 + x_f3_t12 + x_f3_t13 + x_f3_t14 + x_f3_t15 + x_f3_t16 + x_f3_t17 + x_f3_t18 = 1
	x_m_t1 + x_m_t2 + x_m_t3 + x_m_t4 + x_m_t5 + x_m_t6 + x_m_t7 + x_m_t8 + x_m_t9 + x_m_t10 + x_m_t11 + x_m_t12 + x_m_t13 + x_m_t14 + x_m_t15 + x_m_t16 + x_m_t17 + x_m_t18 = 1
	x_d4_t1 + x_d4_t2 + x_d4_t3 + x_d4_t4 + x_d4_t5 + x_d4_t6 + x_d4_t7 + x_d4_t8 + x_d4_t9 + x_d4_t10 + x_d4_t11 + x_d4_t12 + x_d4_t13 + x_d4_t14 + x_d4_t15 + x_d4_t16 + x_d4_t17 + x_d4_t18 = 1
	x_c4_t1 + x_c4_t2 + x_c4_t3 + x_c4_t4 + x_c4_t5 + x_c4_t6 + x_c4_t7 + x_c4_t8 + x_c4_t9 + x_c4_t10 + x_c4_t11 + x_c4_t12 + x_c4_t13 + x_c4_t14 + x_c4_t15 + x_c4_t16 + x_c4_t17 + x_c4_t18 = 1
	x_b4_t1 + x_b4_t2 + x_b4_t3 + x_b4_t4 + x_b4_t5 + x_b4_t6 + x_b4_t7 + x_b4_t8 + x_b4_t9 + x_b4_t10 + x_b4_t11 + x_b4_t12 + x_b4_t13 + x_b4_t14 + x_b4_t15 + x_b4_t16 + x_b4_t17 + x_b4_t18 = 1
	x_c2_t1 + x_c2_t2 + x_c2_t3 + x_c2_t4 + x_c2_t5 + x_c2_t6 + x_c2_t7 + x_c2_t8 + x_c2_t9 + x_c2_t10 + x_c2_t11 + x_c2_t12 + x_c2_t13 + x_c2_t14 + x_c2_t15 + x_c2_t16 + x_c2_t17 + x_c2_t18 = 1
	x_a1_t1 + x_a1_t2 + x_a1_t3 + x_a1_t4 + x_a1_t5 + x_a1_t6 + x_a1_t7 + x_a1_t8 + x_a1_t9 + x_a1_t10 + x_a1_t11 + x_a1_t12 + x_a1_t13 + x_a1_t14 + x_a1_t15 + x_a1_t16 + x_a1_t17 + x_a1_t18 = 1
	x_n_t1 + x_n_t2 + x_n_t3 + x_n_t4 + x_n_t5 + x_n_t6 + x_n_t7 + x_n_t8 + x_n_t9 + x_n_t10 + x_n_t11 + x_n_t12 + x_n_t13 + x_n_t14 + x_n_t15 + x_n_t16 + x_n_t17 + x_n_t18 = 1
	x_i1_t1 + x_i1_t2 + x_i1_t3 + x_i1_t4 + x_i1_t5 + x_i1_t6 + x_i1_t7 + x_i1_t8 + x_i1_t9 + x_i1_t10 + x_i1_t11 + x_i1_t12 + x_i1_t13 + x_i1_t14 + x_i1_t15 + x_i1_t16 + x_i1_t17 + x_i1_t18 = 1
	x_o_t1 + x_o_t2 + x_o_t3 + x_o_t4 + x_o_t5 + x_o_t6 + x_o_t7 + x_o_t8 + x_o_t9 + x_o_t10 + x_o_t11 + x_o_t12 + x_o_t13 + x_o_t14 + x_o_t15 + x_o_t16 + x_o_t17 + x_o_t18 = 1
	x_c3_t1 + x_c3_t2 + x_c3_t3 + x_c3_t4 + x_c3_t5 + x_c3_t6 + x_c3_t7 + x_c3_t8 + x_c3_t9 + x_c3_t10 + x_c3_t11 + x_c3_t12 + x_c3_t13 + x_c3_t14 + x_c3_t15 + x_c3_t16 + x_c3_t17 + x_c3_t18 = 1
	x_a2_t1 + x_a2_t2 + x_a2_t3 + x_a2_t4 + x_a2_t5 + x_a2_t6 + x_a2_t7 + x_a2_t8 + x_a2_t9 + x_a2_t10 + x_a2_t11 + x_a2_t12 + x_a2_t13 + x_a2_t14 + x_a2_t15 + x_a2_t16 + x_a2_t17 + x_a2_t18 = 1
	x_f1_t1 + x_f1_t2 + x_f1_t3 + x_f1_t4 + x_f1_t5 + x_f1_t6 + x_f1_t7 + x_f1_t8 + x_f1_t9 + x_f1_t10 + x_f1_t11 + x_f1_t12 + x_f1_t13 + x_f1_t14 + x_f1_t15 + x_f1_t16 + x_f1_t17 + x_f1_t18 = 1
	x_e1_t1 + x_e1_t2 + x_e1_t3 + x_e1_t4 + x_e1_t5 + x_e1_t6 + x_e1_t7 + x_e1_t8 + x_e1_t9 + x_e1_t10 + x_e1_t11 + x_e1_t12 + x_e1_t13 + x_e1_t14 + x_e1_t15 + x_e1_t16 + x_e1_t17 + x_e1_t18 = 1
	x_b3_t1 + x_b3_t2 + x_b3_t3 + x_b3_t4 + x_b3_t5 + x_b3_t6 + x_b3_t7 + x_b3_t8 + x_b3_t9 + x_b3_t10 + x_b3_t11 + x_b3_t12 + x_b3_t13 + x_b3_t14 + x_b3_t15 + x_b3_t16 + x_b3_t17 + x_b3_t18 = 1
	x_f4_t1 + x_f4_t2 + x_f4_t3 + x_f4_t4 + x_f4_t5 + x_f4_t6 + x_f4_t7 + x_f4_t8 + x_f4_t9 + x_f4_t10 + x_f4_t11 + x_f4_t12 + x_f4_t13 + x_f4_t14 + x_f4_t15 + x_f4_t16 + x_f4_t17 + x_f4_t18 = 1
	x_h3_t1 + x_h3_t2 + x_h3_t3 + x_h3_t4 + x_h3_t5 + x_h3_t6 + x_h3_t7 + x_h3_t8 + x_h3_t9 + x_h3_t10 + x_h3_t11 + x_h3_t12 + x_h3_t13 + x_h3_t14 + x_h3_t15 + x_h3_t16 + x_h3_t17 + x_h3_t18 = 1
	x_d2_t1 + x_d2_t2 + x_d2_t3 + x_d2_t4 + x_d2_t5 + x_d2_t6 + x_d2_t7 + x_d2_t8 + x_d2_t9 + x_d2_t10 + x_d2_t11 + x_d2_t12 + x_d2_t13 + x_d2_t14 + x_d2_t15 + x_d2_t16 + x_d2_t17 + x_d2_t18 = 1
	x_d1_t1 + x_d1_t2 + x_d1_t3 + x_d1_t4 + x_d1_t5 + x_d1_t6 + x_d1_t7 + x_d1_t8 + x_d1_t9 + x_d1_t10 + x_d1_t11 + x_d1_t12 + x_d1_t13 + x_d1_t14 + x_d1_t15 + x_d1_t16 + x_d1_t17 + x_d1_t18 = 1
	x_c1_t1 + x_c1_t2 + x_c1_t3 + x_c1_t4 + x_c1_t5 + x_c1_t6 + x_c1_t7 + x_c1_t8 + x_c1_t9 + x_c1_t10 + x_c1_t11 + x_c1_t12 + x_c1_t13 + x_c1_t14 + x_c1_t15 + x_c1_t16 + x_c1_t17 + x_c1_t18 = 1
	x_p_t1 + x_p_t2 + x_p_t3 + x_p_t4 + x_p_t5 + x_p_t6 + x_p_t7 + x_p_t8 + x_p_t9 + x_p_t10 + x_p_t11 + x_p_t12 + x_p_t13 + x_p_t14 + x_p_t15 + x_p_t16 + x_p_t17 + x_p_t18 = 1
	x_b2_t1 + x_b2_t2 + x_b2_t3 + x_b2_t4 + x_b2_t5 + x_b2_t6 + x_b2_t7 + x_b2_t8 + x_b2_t9 + x_b2_t10 + x_b2_t11 + x_b2_t12 + x_b2_t13 + x_b2_t14 + x_b2_t15 + x_b2_t16 + x_b2_t17 + x_b2_t18 = 1
	x_b1_t1 + x_b1_t2 + x_b1_t3 + x_b1_t4 + x_b1_t5 + x_b1_t6 + x_b1_t7 + x_b1_t8 + x_b1_t9 + x_b1_t10 + x_b1_t11 + x_b1_t12 + x_b1_t13 + x_b1_t14 + x_b1_t15 + x_b1_t16 + x_b1_t17 + x_b1_t18 = 1
	x_d3_t1 + x_d3_t2 + x_d3_t3 + x_d3_t4 + x_d3_t5 + x_d3_t6 + x_d3_t7 + x_d3_t8 + x_d3_t9 + x_d3_t10 + x_d3_t11 + x_d3_t12 + x_d3_t13 + x_d3_t14 + x_d3_t15 + x_d3_t16 + x_d3_t17 + x_d3_t18 = 1
	x_e3_t1 + x_e3_t2 + x_e3_t3 + x_e3_t4 + x_e3_t5 + x_e3_t6 + x_e3_t7 + x_e3_t8 + x_e3_t9 + x_e3_t10 + x_e3_t11 + x_e3_t12 + x_e3_t13 + x_e3_t14 + x_e3_t15 + x_e3_t16 + x_e3_t17 + x_e3_t18 = 1
	x_e2_t1 + x_e2_t2 + x_e2_t3 + x_e2_t4 + x_e2_t5 + x_e2_t6 + x_e2_t7 + x_e2_t8 + x_e2_t9 + x_e2_t10 + x_e2_t11 + x_e2_t12 + x_e2_t13 + x_e2_t14 + x_e2_t15 + x_e2_t16 + x_e2_t17 + x_e2_t18 = 1
	x_j1_t1 + x_j1_t2 + x_j1_t3 + x_j1_t4 + x_j1_t5 + x_j1_t6 + x_j1_t7 + x_j1_t8 + x_j1_t9 + x_j1_t10 + x_j1_t11 + x_j1_t12 + x_j1_t13 + x_j1_t14 + x_j1_t15 + x_j1_t16 + x_j1_t17 + x_j1_t18 = 1
	x_q_t1 + x_q_t2 + x_q_t3 + x_q_t4 + x_q_t5 + x_q_t6 + x_q_t7 + x_q_t8 + x_q_t9 + x_q_t10 + x_q_t11 + x_q_t12 + x_q_t13 + x_q_t14 + x_q_t15 + x_q_t16 + x_q_t17 + x_q_t18 = 1

Bounds
	start_a4 >= 1
	start_g2 >= 1
	start_h2 >= 1
	start_g3 >= 1
	start_i2 >= 1
	start_e4 >= 1
	start_a3 >= 1
	start_j2 >= 1
	start_g1 >= 1
	start_k >= 1
	start_f2 >= 1
	start_h1 >= 1
	start_l >= 1
	start_f3 >= 1
	start_m >= 1
	start_d4 >= 1
	start_c4 >= 1
	start_b4 >= 1
	start_c2 >= 1
	start_a1 >= 1
	start_n >= 1
	start_i1 >= 1
	start_o >= 1
	start_c3 >= 1
	start_a2 >= 1
	start_f1 >= 1
	start_e1 >= 1
	start_b3 >= 1
	start_f4 >= 1
	start_h3 >= 1
	start_d2 >= 1
	start_d1 >= 1
	start_c1 >= 1
	start_p >= 1
	start_b2 >= 1
	start_b1 >= 1
	start_d3 >= 1
	start_e3 >= 1
	start_e2 >= 1
	start_j1 >= 1
	start_q >= 1
	latency >= 1

Binary
	x_a4_t1 x_a4_t2 x_a4_t3 x_a4_t4 x_a4_t5 x_a4_t6 x_a4_t7 x_a4_t8 x_a4_t9 x_a4_t10 x_a4_t11 x_a4_t12 x_a4_t13 x_a4_t14 x_a4_t15 x_a4_t16 x_a4_t17 x_a4_t18 x_g2_t1 x_g2_t2 x_g2_t3 x_g2_t4 x_g2_t5 x_g2_t6 x_g2_t7 x_g2_t8 x_g2_t9 x_g2_t10 x_g2_t11 x_g2_t12 x_g2_t13 x_g2_t14 x_g2_t15 x_g2_t16 x_g2_t17 x_g2_t18 x_h2_t1 x_h2_t2 x_h2_t3 x_h2_t4 x_h2_t5 x_h2_t6 x_h2_t7 x_h2_t8 x_h2_t9 x_h2_t10 x_h2_t11 x_h2_t12 x_h2_t13 x_h2_t14 x_h2_t15 x_h2_t16 x_h2_t17 x_h2_t18 x_g3_t1 x_g3_t2 x_g3_t3 x_g3_t4 x_g3_t5 x_g3_t6 x_g3_t7 x_g3_t8 x_g3_t9 x_g3_t10 x_g3_t11 x_g3_t12 x_g3_t13 x_g3_t14 x_g3_t15 x_g3_t16 x_g3_t17 x_g3_t18 x_i2_t1 x_i2_t2 x_i2_t3 x_i2_t4 x_i2_t5 x_i2_t6 x_i2_t7 x_i2_t8 x_i2_t9 x_i2_t10 x_i2_t11 x_i2_t12 x_i2_t13 x_i2_t14 x_i2_t15 x_i2_t16 x_i2_t17 x_i2_t18 x_e4_t1 x_e4_t2 x_e4_t3 x_e4_t4 x_e4_t5 x_e4_t6 x_e4_t7 x_e4_t8 x_e4_t9 x_e4_t10 x_e4_t11 x_e4_t12 x_e4_t13 x_e4_t14 x_e4_t15 x_e4_t16 x_e4_t17 x_e4_t18 x_a3_t1 x_a3_t2 x_a3_t3 x_a3_t4 x_a3_t5 x_a3_t6 x_a3_t7 x_a3_t8 x_a3_t9 x_a3_t10 x_a3_t11 x_a3_t12 x_a3_t13 x_a3_t14 x_a3_t15 x_a3_t16 x_a3_t17 x_a3_t18 x_j2_t1 x_j2_t2 x_j2_t3 x_j2_t4 x_j2_t5 x_j2_t6 x_j2_t7 x_j2_t8 x_j2_t9 x_j2_t10 x_j2_t11 x_j2_t12 x_j2_t13 x_j2_t14 x_j2_t15 x_j2_t16 x_j2_t17 x_j2_t18 x_g1_t1 x_g1_t2 x_g1_t3 x_g1_t4 x_g1_t5 x_g1_t6 x_g1_t7 x_g1_t8 x_g1_t9 x_g1_t10 x_g1_t11 x_g1_t12 x_g1_t13 x_g1_t14 x_g1_t15 x_g1_t16 x_g1_t17 x_g1_t18 x_k_t1 x_k_t2 x_k_t3 x_k_t4 x_k_t5 x_k_t6 x_k_t7 x_k_t8 x_k_t9 x_k_t10 x_k_t11 x_k_t12 x_k_t13 x_k_t14 x_k_t15 x_k_t16 x_k_t17 x_k_t18 x_f2_t1 x_f2_t2 x_f2_t3 x_f2_t4 x_f2_t5 x_f2_t6 x_f2_t7 x_f2_t8 x_f2_t9 x_f2_t10 x_f2_t11 x_f2_t12 x_f2_t13 x_f2_t14 x_f2_t15 x_f2_t16 x_f2_t17 x_f2_t18 x_h1_t1 x_h1_t2 x_h1_t3 x_h1_t4 x_h1_t5 x_h1_t6 x_h1_t7 x_h1_t8 x_h1_t9 x_h1_t10 x_h1_t11 x_h1_t12 x_h1_t13 x_h1_t14 x_h1_t15 x_h1_t16 x_h1_t17 x_h1_t18 x_l_t1 x_l_t2 x_l_t3 x_l_t4 x_l_t5 x_l_t6 x_l_t7 x_l_t8 x_l_t9 x_l_t10 x_l_t11 x_l_t12 x_l_t13 x_l_t14 x_l_t15 x_l_t16 x_l_t17 x_l_t18 x_f3_t1 x_f3_t2 x_f3_t3 x_f3_t4 x_f3_t5 x_f3_t6 x_f3_t7 x_f3_t8 x_f3_t9 x_f3_t10 x_f3_t11 x_f3_t12 x_f3_t13 x_f3_t14 x_f3_t15 x_f3_t16 x_f3_t17 x_f3_t18 x_m_t1 x_m_t2 x_m_t3 x_m_t4 x_m_t5 x_m_t6 x_m_t7 x_m_t8 x_m_t9 x_m_t10 x_m_t11 x_m_t12 x_m_t13 x_m_t14 x_m_t15 x_m_t16 x_m_t17 x_m_t18 x_d4_t1 x_d4_t2 x_d4_t3 x_d4_t4 x_d4_t5 x_d4_t6 x_d4_t7 x_d4_t8 x_d4_t9 x_d4_t10 x_d4_t11 x_d4_t12 x_d4_t13 x_d4_t14 x_d4_t15 x_d4_t16 x_d4_t17 x_d4_t18 x_c4_t1 x_c4_t2 x_c4_t3 x_c4_t4 x_c4_t5 x_c4_t6 x_c4_t7 x_c4_t8 x_c4_t9 x_c4_t10 x_c4_t11 x_c4_t12 x_c4_t13 x_c4_t14 x_c4_t15 x_c4_t16 x_c4_t17 x_c4_t18 x_b4_t1 x_b4_t2 x_b4_t3 x_b4_t4 x_b4_t5 x_b4_t6 x_b4_t7 x_b4_t8 x_b4_t9 x_b4_t10 x_b4_t11 x_b4_t12 x_b4_t13 x_b4_t14 x_b4_t15 x_b4_t16 x_b4_t17 x_b4_t18 x_c2_t1 x_c2_t2 x_c2_t3 x_c2_t4 x_c2_t5 x_c2_t6 x_c2_t7 x_c2_t8 x_c2_t9 x_c2_t10 x_c2_t11 x_c2_t12 x_c2_t13 x_c2_t14 x_c2_t15 x_c2_t16 x_c2_t17 x_c2_t18 x_a1_t1 x_a1_t2 x_a1_t3 x_a1_t4 x_a1_t5 x_a1_t6 x_a1_t7 x_a1_t8 x_a1_t9 x_a1_t10 x_a1_t11 x_a1_t12 x_a1_t13 x_a1_t14 x_a1_t15 x_a1_t16 x_a1_t17 x_a1_t18 x_n_t1 x_n_t2 x_n_t3 x_n_t4 x_n_t5 x_n_t6 x_n_t7 x_n_t8 x_n_t9 x_n_t10 x_n_t11 x_n_t12 x_n_t13 x_n_t14 x_n_t15 x_n_t16 x_n_t17 x_n_t18 x_i1_t1 x_i1_t2 x_i1_t3 x_i1_t4 x_i1_t5 x_i1_t6 x_i1_t7 x_i1_t8 x_i1_t9 x_i1_t10 x_i1_t11 x_i1_t12 x_i1_t13 x_i1_t14 x_i1_t15 x_i1_t16 x_i1_t17 x_i1_t18 x_o_t1 x_o_t2 x_o_t3 x_o_t4 x_o_t5 x_o_t6 x_o_t7 x_o_t8 x_o_t9 x_o_t10 x_o_t11 x_o_t12 x_o_t13 x_o_t14 x_o_t15 x_o_t16 x_o_t17 x_o_t18 x_c3_t1 x_c3_t2 x_c3_t3 x_c3_t4 x_c3_t5 x_c3_t6 x_c3_t7 x_c3_t8 x_c3_t9 x_c3_t10 x_c3_t11 x_c3_t12 x_c3_t13 x_c3_t14 x_c3_t15 x_c3_t16 x_c3_t17 x_c3_t18 x_a2_t1 x_a2_t2 x_a2_t3 x_a2_t4 x_a2_t5 x_a2_t6 x_a2_t7 x_a2_t8 x_a2_t9 x_a2_t10 x_a2_t11 x_a2_t12 x_a2_t13 x_a2_t14 x_a2_t15 x_a2_t16 x_a2_t17 x_a2_t18 x_f1_t1 x_f1_t2 x_f1_t3 x_f1_t4 x_f1_t5 x_f1_t6 x_f1_t7 x_f1_t8 x_f1_t9 x_f1_t10 x_f1_t11 x_f1_t12 x_f1_t13 x_f1_t14 x_f1_t15 x_f1_t16 x_f1_t17 x_f1_t18 x_e1_t1 x_e1_t2 x_e1_t3 x_e1_t4 x_e1_t5 x_e1_t6 x_e1_t7 x_e1_t8 x_e1_t9 x_e1_t10 x_e1_t11 x_e1_t12 x_e1_t13 x_e1_t14 x_e1_t15 x_e1_t16 x_e1_t17 x_e1_t18 x_b3_t1 x_b3_t2 x_b3_t3 x_b3_t4 x_b3_t5 x_b3_t6 x_b3_t7 x_b3_t8 x_b3_t9 x_b3_t10 x_b3_t11 x_b3_t12 x_b3_t13 x_b3_t14 x_b3_t15 x_b3_t16 x_b3_t17 x_b3_t18 x_f4_t1 x_f4_t2 x_f4_t3 x_f4_t4 x_f4_t5 x_f4_t6 x_f4_t7 x_f4_t8 x_f4_t9 x_f4_t10 x_f4_t11 x_f4_t12 x_f4_t13 x_f4_t14 x_f4_t15 x_f4_t16 x_f4_t17 x_f4_t18 x_h3_t1 x_h3_t2 x_h3_t3 x_h3_t4 x_h3_t5 x_h3_t6 x_h3_t7 x_h3_t8 x_h3_t9 x_h3_t10 x_h3_t11 x_h3_t12 x_h3_t13 x_h3_t14 x_h3_t15 x_h3_t16 x_h3_t17 x_h3_t18 x_d2_t1 x_d2_t2 x_d2_t3 x_d2_t4 x_d2_t5 x_d2_t6 x_d2_t7 x_d2_t8 x_d2_t9 x_d2_t10 x_d2_t11 x_d2_t12 x_d2_t13 x_d2_t14 x_d2_t15 x_d2_t16 x_d2_t17 x_d2_t18 x_d1_t1 x_d1_t2 x_d1_t3 x_d1_t4 x_d1_t5 x_d1_t6 x_d1_t7 x_d1_t8 x_d1_t9 x_d1_t10 x_d1_t11 x_d1_t12 x_d1_t13 x_d1_t14 x_d1_t15 x_d1_t16 x_d1_t17 x_d1_t18 x_c1_t1 x_c1_t2 x_c1_t3 x_c1_t4 x_c1_t5 x_c1_t6 x_c1_t7 x_c1_t8 x_c1_t9 x_c1_t10 x_c1_t11 x_c1_t12 x_c1_t13 x_c1_t14 x_c1_t15 x_c1_t16 x_c1_t17 x_c1_t18 x_p_t1 x_p_t2 x_p_t3 x_p_t4 x_p_t5 x_p_t6 x_p_t7 x_p_t8 x_p_t9 x_p_t10 x_p_t11 x_p_t12 x_p_t13 x_p_t14 x_p_t15 x_p_t16 x_p_t17 x_p_t18 x_b2_t1 x_b2_t2 x_b2_t3 x_b2_t4 x_b2_t5 x_b2_t6 x_b2_t7 x_b2_t8 x_b2_t9 x_b2_t10 x_b2_t11 x_b2_t12 x_b2_t13 x_b2_t14 x_b2_t15 x_b2_t16 x_b2_t17 x_b2_t18 x_b1_t1 x_b1_t2 x_b1_t3 x_b1_t4 x_b1_t5 x_b1_t6 x_b1_t7 x_b1_t8 x_b1_t9 x_b1_t10 x_b1_t11 x_b1_t12 x_b1_t13 x_b1_t14 x_b1_t15 x_b1_t16 x_b1_t17 x_b1_t18 x_d3_t1 x_d3_t2 x_d3_t3 x_d3_t4 x_d3_t5 x_d3_t6 x_d3_t7 x_d3_t8 x_d3_t9 x_d3_t10 x_d3_t11 x_d3_t12 x_d3_t13 x_d3_t14 x_d3_t15 x_d3_t16 x_d3_t17 x_d3_t18 x_e3_t1 x_e3_t2 x_e3_t3 x_e3_t4 x_e3_t5 x_e3_t6 x_e3_t7 x_e3_t8 x_e3_t9 x_e3_t10 x_e3_t11 x_e3_t12 x_e3_t13 x_e3_t14 x_e3_t15 x_e3_t16 x_e3_t17 x_e3_t18 x_e2_t1 x_e2_t2 x_e2_t3 x_e2_t4 x_e2_t5 x_e2_t6 x_e2_t7 x_e2_t8 x_e2_t9 x_e2_t10 x_e2_t11 x_e2_t12 x_e2_t13 x_e2_t14 x_e2_t15 x_e2_t16 x_e2_t17 x_e2_t18 x_j1_t1 x_j1_t2 x_j1_t3 x_j1_t4 x_j1_t5 x_j1_t6 x_j1_t7 x_j1_t8 x_j1_t9 x_j1_t10 x_j1_t11 x_j1_t12 x_j1_t13 x_j1_t14 x_j1_t15 x_j1_t16 x_j1_t17 x_j1_t18 x_q_t1 x_q_t2 x_q_t3 x_q_t4 x_q_t5 x_q_t6 x_q_t7 x_q_t8 x_q_t9 x_q_t10 x_q_t11 x_q_t12 x_q_t13 x_q_t14 x_q_t15 x_q_t16 x_q_t17 x_q_t18 

End
